This is Ipopt version 3.12.4, running with linear solver mumps.
NOTE: Other linear solvers might be more efficient (see Ipopt documentation).

Number of nonzeros in equality constraint Jacobian...:        0
Number of nonzeros in inequality constraint Jacobian.:        0
Number of nonzeros in Lagrangian Hessian.............:        0

Total number of variables............................:        5
                     variables with only lower bounds:        0
                variables with lower and upper bounds:        0
                     variables with only upper bounds:        0
Total number of equality constraints.................:        0
Total number of inequality constraints...............:        0
        inequality constraints with only lower bounds:        0
   inequality constraints with lower and upper bounds:        0
        inequality constraints with only upper bounds:        0

iter    objective    inf_pr   inf_du lg(mu)  ||d||  lg(rg) alpha_du alpha_pr  ls
   0  8.2150021e-03 0.00e+00 2.42e-02   0.0 0.00e+00    -  0.00e+00 0.00e+00   0
   1  7.9507653e-03 0.00e+00 1.26e-02 -11.0 2.42e-02    -  1.00e+00 1.00e+00f  1
   2  7.8693844e-03 0.00e+00 3.03e-03 -11.0 8.00e-03    -  1.00e+00 1.00e+00f  1
   3  7.8558939e-03 0.00e+00 3.02e-03 -11.0 2.41e-03    -  1.00e+00 1.00e+00f  1
   4  7.4266815e-03 0.00e+00 1.64e-02 -11.0 9.41e-02    -  1.00e+00 1.00e+00f  1
   5  7.3669966e-03 0.00e+00 3.04e-02 -11.0 3.60e+00    -  1.00e+00 1.56e-02f  7
   6  5.9202155e-03 0.00e+00 3.90e-02 -11.0 3.55e-01    -  1.00e+00 1.00e+00f  1
   7  1.2923871e-03 0.00e+00 5.37e-02 -11.0 1.51e+00    -  1.00e+00 1.00e+00f  1
   8  1.6972210e-04 0.00e+00 1.34e-02 -11.0 3.33e-01    -  1.00e+00 1.00e+00f  1
   9  1.0460644e-04 0.00e+00 4.58e-03 -11.0 2.23e-01    -  1.00e+00 1.00e+00f  1
iter    objective    inf_pr   inf_du lg(mu)  ||d||  lg(rg) alpha_du alpha_pr  ls
  10  6.6562370e-05 0.00e+00 3.30e-04 -11.0 1.11e-01    -  1.00e+00 1.00e+00f  1
  11  6.6405768e-05 0.00e+00 6.76e-04 -11.0 3.28e-02    -  1.00e+00 2.50e-01f  3
  12  6.5260441e-05 0.00e+00 1.04e-03 -11.0 2.02e-01    -  1.00e+00 2.50e-01f  3
  13  6.4209703e-05 0.00e+00 4.13e-04 -11.0 3.72e-01    -  1.00e+00 1.25e-01f  4
  14  6.3334135e-05 0.00e+00 6.67e-04 -11.0 3.96e-02    -  1.00e+00 1.00e+00f  1
  15  6.3223724e-05 0.00e+00 2.00e-04 -11.0 1.05e+00    -  1.00e+00 1.56e-02f  7
  16  6.3074225e-05 0.00e+00 7.41e-06 -11.0 1.05e-02    -  1.00e+00 1.00e+00f  1
  17  6.3074223e-05 0.00e+00 8.25e-06 -11.0 4.01e-03    -  1.00e+00 1.56e-02f  7
  18  6.3074186e-05 0.00e+00 4.80e-06 -11.0 3.18e-02    -  1.00e+00 1.95e-03f 10
  19  6.3074184e-05 0.00e+00 3.65e-06 -11.0 8.87e-04    -  1.00e+00 6.25e-02f  5
iter    objective    inf_pr   inf_du lg(mu)  ||d||  lg(rg) alpha_du alpha_pr  ls
  20  6.3074169e-05 0.00e+00 3.22e-07 -11.0 7.09e-04    -  1.00e+00 1.25e-01f  4
  21  6.3074169e-05 0.00e+00 1.08e-07 -11.0 6.93e-06    -  1.00e+00 1.00e+00f  1
  22  6.3074169e-05 0.00e+00 7.36e-08 -11.0 3.21e-04    -  1.00e+00 1.56e-02f  7
  23  6.3074169e-05 0.00e+00 1.73e-08 -11.0 2.10e-06    -  1.00e+00 1.00e+00f  1
  24  6.3074169e-05 0.00e+00 1.24e-08 -11.0 2.06e-05    -  1.00e+00 1.56e-02f  7
  25  6.3074169e-05 0.00e+00 1.12e-08 -11.0 4.02e-05    -  1.00e+00 3.91e-03f  9
  26  6.3074169e-05 0.00e+00 5.10e-09 -11.0 3.75e-07    -  1.00e+00 5.00e-01f  2

Number of Iterations....: 26

                                   (scaled)                 (unscaled)
Objective...............:   6.3074169237452380e-05    6.3074169237452380e-05
Dual infeasibility......:   5.1024836270855629e-09    5.1024836270855629e-09
Constraint violation....:   0.0000000000000000e+00    0.0000000000000000e+00
Complementarity.........:   0.0000000000000000e+00    0.0000000000000000e+00
Overall NLP error.......:   5.1024836270855629e-09    5.1024836270855629e-09


Number of objective function evaluations             = 141
Number of objective gradient evaluations             = 27
Number of equality constraint evaluations            = 0
Number of inequality constraint evaluations          = 0
Number of equality constraint Jacobian evaluations   = 0
Number of inequality constraint Jacobian evaluations = 0
Number of Lagrangian Hessian evaluations             = 0
Total CPU secs in IPOPT (w/o function evaluations)   =      0.028
Total CPU secs in NLP function evaluations           =      0.328

EXIT: Optimal Solution Found.
